(set-logic QF_SLAH)

(declare-datatypes ((data_t 0)) (((c_data_t (sz Int)))))

(declare-heap (Int data_t))

(define-fun hck ((?x Int) (?y Int) (?v Int)) Bool
	(and
		(>= (- ?y ?x) 2) (<= (- ?y ?x) ?v)
		(sep (pto ?x (c_data_t (- ?y ?x))) (blk (+ ?x 1) ?y))
))

(define-fun-rec hls ((?x Int) (?y Int) (?v Int)) Bool
	(or
		(and (= ?x ?y) (_ emp Int data_t))
		(exists ((?w Int)) (sep (hck ?x ?w ?v) (hls ?w ?y ?v)))
))

(declare-const x0 Int)
(declare-const x1 Int)
(declare-const v0 Int)
(declare-const x2 Int)
(declare-const x3 Int)
(declare-const x4 Int)
(declare-const x5 Int)
(declare-const x6 Int)
(declare-const x7 Int)
(declare-const x8 Int)
(declare-const x9 Int)
(declare-const v8 Int)
(declare-const x10 Int)
(declare-const x11 Int)
(declare-const v10 Int)
(declare-const x12 Int)
(declare-const x13 Int)
(declare-const x14 Int)
(declare-const x15 Int)
(declare-const v14 Int)
(declare-const x16 Int)
(declare-const x17 Int)
(declare-const x18 Int)
(declare-const x19 Int)
(declare-const x20 Int)
(declare-const x21 Int)
(declare-const v20 Int)
(declare-const x22 Int)
(declare-const x23 Int)
(declare-const v22 Int)
(declare-const x24 Int)
(declare-const x25 Int)
(declare-const x26 Int)
(declare-const x27 Int)
(declare-const x28 Int)
(declare-const x29 Int)
(declare-const x30 Int)
(declare-const x31 Int)
(declare-const v30 Int)
(declare-const x32 Int)
(declare-const x33 Int)
(declare-const x34 Int)
(declare-const x35 Int)
(declare-const x36 Int)
(declare-const x37 Int)
(declare-const v36 Int)
(declare-const x38 Int)
(declare-const x39 Int)
(declare-const v38 Int)
(declare-const x40 Int)
(declare-const x41 Int)
(declare-const x42 Int)
(declare-const x43 Int)
(declare-const x44 Int)
(declare-const x45 Int)
(declare-const x46 Int)
(declare-const x47 Int)
(declare-const x48 Int)
(declare-const x49 Int)
(declare-const v48 Int)
(declare-const x50 Int)
(declare-const x51 Int)
(declare-const v50 Int)
(declare-const x52 Int)
(declare-const x53 Int)
(declare-const v52 Int)
(declare-const x54 Int)
(declare-const x55 Int)
(declare-const x56 Int)
(declare-const x57 Int)
(declare-const x58 Int)
(declare-const x59 Int)
(declare-const x60 Int)
(declare-const x61 Int)
(declare-const v60 Int)
(declare-const x62 Int)
(declare-const x63 Int)
(declare-const v62 Int)
(declare-const x64 Int)
(declare-const x65 Int)
(declare-const v64 Int)
(declare-const x66 Int)
(declare-const x67 Int)
(declare-const v66 Int)
(declare-const x68 Int)
(declare-const x69 Int)
(declare-const v68 Int)
(declare-const x70 Int)
(declare-const x71 Int)
(declare-const x72 Int)
(declare-const x73 Int)
(declare-const x74 Int)
(declare-const x75 Int)
(declare-const x76 Int)
(declare-const x77 Int)
(declare-const v76 Int)
(declare-const x78 Int)
(declare-const x79 Int)
(declare-const x80 Int)
(declare-const x81 Int)
(declare-const x82 Int)
(declare-const x83 Int)
(declare-const x84 Int)
(declare-const x85 Int)
(declare-const v84 Int)
(declare-const x86 Int)
(declare-const x87 Int)
(declare-const x88 Int)
(declare-const x89 Int)
(declare-const v88 Int)
(declare-const x90 Int)
(declare-const x91 Int)
(declare-const x92 Int)
(declare-const x93 Int)
(declare-const x94 Int)
(declare-const x95 Int)
(declare-const v94 Int)
(declare-const x96 Int)
(declare-const x97 Int)
(declare-const v96 Int)
(declare-const x98 Int)
(declare-const x99 Int)
(declare-const x100 Int)
(declare-const x101 Int)
(declare-const v100 Int)
(declare-const x102 Int)
(declare-const x103 Int)
(declare-const x104 Int)
(declare-const x105 Int)
(declare-const x106 Int)
(declare-const x107 Int)
(declare-const x108 Int)
(declare-const x109 Int)
(declare-const v108 Int)
(declare-const x110 Int)
(declare-const x111 Int)
(declare-const x112 Int)
(declare-const x113 Int)
(declare-const x114 Int)
(declare-const x115 Int)
(declare-const x116 Int)
(declare-const x117 Int)
(declare-const x118 Int)
(declare-const x119 Int)
(declare-const v118 Int)
(declare-const x120 Int)
(declare-const x121 Int)
(declare-const x122 Int)
(declare-const x123 Int)
(declare-const x124 Int)
(declare-const x125 Int)
(declare-const x126 Int)
(declare-const x127 Int)
(declare-const x128 Int)
(declare-const x129 Int)
(declare-const x130 Int)
(declare-const x131 Int)
(declare-const x132 Int)
(declare-const x133 Int)
(declare-const x134 Int)
(declare-const x135 Int)
(declare-const v134 Int)
(declare-const x136 Int)
(declare-const x137 Int)
(declare-const x138 Int)
(declare-const x139 Int)
(declare-const v138 Int)
(declare-const x140 Int)
(declare-const x141 Int)
(declare-const x142 Int)
(declare-const x143 Int)
(declare-const v142 Int)
(declare-const x144 Int)
(declare-const x145 Int)
(declare-const x146 Int)
(declare-const x147 Int)
(declare-const x148 Int)
(declare-const x149 Int)
(declare-const v148 Int)
(declare-const x150 Int)
(declare-const x151 Int)
(declare-const v150 Int)
(declare-const x152 Int)
(declare-const x153 Int)
(declare-const x154 Int)
(declare-const x155 Int)
(declare-const x156 Int)
(declare-const x157 Int)
(declare-const x158 Int)
(declare-const x159 Int)
(declare-const v158 Int)
(declare-const x160 Int)
(declare-const x161 Int)
(declare-const x162 Int)
(declare-const x163 Int)
(declare-const x164 Int)
(declare-const x165 Int)
(declare-const x166 Int)
(declare-const x167 Int)
(declare-const v166 Int)
(declare-const x168 Int)
(declare-const x169 Int)
(declare-const x170 Int)
(declare-const x171 Int)
(declare-const v170 Int)
(declare-const x172 Int)
(declare-const x173 Int)
(declare-const x174 Int)
(declare-const x175 Int)
(declare-const v174 Int)
(declare-const x176 Int)
(declare-const x177 Int)
(declare-const x178 Int)
(declare-const x179 Int)
(declare-const v178 Int)
(declare-const x180 Int)
(declare-const x181 Int)
(declare-const x182 Int)
(declare-const x183 Int)
(declare-const x184 Int)
(declare-const x185 Int)
(declare-const x186 Int)
(declare-const x187 Int)
(declare-const x188 Int)
(declare-const x189 Int)
(declare-const v188 Int)
(declare-const x190 Int)
(declare-const x191 Int)
(declare-const v190 Int)
(declare-const x192 Int)
(declare-const x193 Int)
(declare-const x194 Int)
(declare-const x195 Int)
(declare-const v194 Int)
(declare-const x196 Int)
(declare-const x197 Int)
(declare-const v196 Int)
(declare-const x198 Int)
(declare-const x199 Int)

(assert(and
(< x28 x87) (distinct x158 x143) (= x169 x137) (< x32 x169) (< x99 x114) (distinct x94 x111) (= x145 x96) (< x189 x151) (distinct x186 x188) (= x34 x186) (= x157 x160) (< x60 x130) 
(sep
(hls x0 x1 v0)
(blk x2 x3)
(blk x4 x5)
(pto x6 (c_data_t x7))
(hls x8 x9 v8)
(hls x10 x11 v10)
(blk x12 x13)
(hls x14 x15 v14)
(pto x16 (c_data_t x17))
(blk x18 x19)
(hls x20 x21 v20)
(hls x22 x23 v22)
(pto x24 (c_data_t x25))
(pto x26 (c_data_t x27))
(pto x28 (c_data_t x29))
(hls x30 x31 v30)
(blk x32 x33)
(pto x34 (c_data_t x35))
(hls x36 x37 v36)
(hls x38 x39 v38)
(pto x40 (c_data_t x41))
(blk x42 x43)
(pto x44 (c_data_t x45))
(blk x46 x47)
(hls x48 x49 v48)
(hls x50 x51 v50)
(hls x52 x53 v52)
(blk x54 x55)
(blk x56 x57)
(pto x58 (c_data_t x59))
(hls x60 x61 v60)
(hls x62 x63 v62)
(hls x64 x65 v64)
(hls x66 x67 v66)
(hls x68 x69 v68)
(blk x70 x71)
(blk x72 x73)
(pto x74 (c_data_t x75))
(hls x76 x77 v76)
(pto x78 (c_data_t x79))
(pto x80 (c_data_t x81))
(blk x82 x83)
(hls x84 x85 v84)
(blk x86 x87)
(hls x88 x89 v88)
(pto x90 (c_data_t x91))
(pto x92 (c_data_t x93))
(hls x94 x95 v94)
(hls x96 x97 v96)
(pto x98 (c_data_t x99))
(hls x100 x101 v100)
(pto x102 (c_data_t x103))
(blk x104 x105)
(pto x106 (c_data_t x107))
(hls x108 x109 v108)
(blk x110 x111)
(blk x112 x113)
(blk x114 x115)
(pto x116 (c_data_t x117))
(hls x118 x119 v118)
(blk x120 x121)
(blk x122 x123)
(pto x124 (c_data_t x125))
(blk x126 x127)
(blk x128 x129)
(blk x130 x131)
(pto x132 (c_data_t x133))
(hls x134 x135 v134)
(blk x136 x137)
(hls x138 x139 v138)
(pto x140 (c_data_t x141))
(hls x142 x143 v142)
(pto x144 (c_data_t x145))
(pto x146 (c_data_t x147))
(hls x148 x149 v148)
(hls x150 x151 v150)
(blk x152 x153)
(blk x154 x155)
(blk x156 x157)
(hls x158 x159 v158)
(blk x160 x161)
(blk x162 x163)
(pto x164 (c_data_t x165))
(hls x166 x167 v166)
(blk x168 x169)
(hls x170 x171 v170)
(pto x172 (c_data_t x173))
(hls x174 x175 v174)
(blk x176 x177)
(hls x178 x179 v178)
(blk x180 x181)
(pto x182 (c_data_t x183))
(blk x184 x185)
(blk x186 x187)
(hls x188 x189 v188)
(hls x190 x191 v190)
(pto x192 (c_data_t x193))
(hls x194 x195 v194)
(hls x196 x197 v196)
(blk x198 x199)
)))

(check-sat)